<?xml version="1.0" encoding="UTF-8"?><osil xmlns="os.optimizationservices.org" xmlns:xsi="http://www.w3.org/2001/XMLSchema-instance" xsi:schemaLocation="os.optimizationservices.org http://www.optimizationservices.org/schemas/2.0/OSiL.xsd"><instanceHeader><name>fac3</name></instanceHeader><instanceData><variables numberOfVariables="66"><var name="x1" ub="1e3"/><var name="x2" ub="1e3"/><var name="x3" ub="1e3"/><var name="x4" ub="1e3"/><var name="x5" ub="1e3"/><var name="x6" ub="1e3"/><var name="x7" ub="1e3"/><var name="x8" ub="1e3"/><var name="x9" ub="1e3"/><var name="x10" ub="1e3"/><var name="x11" ub="1e3"/><var name="x12" ub="1e3"/><var name="x13" ub="1e3"/><var name="x14" ub="1e3"/><var name="x15" ub="1e3"/><var name="x16" ub="1e3"/><var name="x17" ub="1e3"/><var name="x18" ub="1e3"/><var name="x19" ub="1e3"/><var name="x20" ub="1e3"/><var name="x21" ub="1e3"/><var name="x22" ub="1e3"/><var name="x23" ub="1e3"/><var name="x24" ub="1e3"/><var name="x25" ub="1e3"/><var name="x26" ub="1e3"/><var name="x27" ub="1e3"/><var name="x28" ub="1e3"/><var name="x29" ub="1e3"/><var name="x30" ub="1e3"/><var name="x31" ub="1e3"/><var name="x32" ub="1e3"/><var name="x33" ub="1e3"/><var name="x34" ub="1e3"/><var name="x35" ub="1e3"/><var name="x36" ub="1e3"/><var name="x37" ub="1e3"/><var name="x38" ub="1e3"/><var name="x39" ub="1e3"/><var name="x40" ub="1e3"/><var name="x41" ub="1e3"/><var name="x42" ub="1e3"/><var name="x43" ub="1e3"/><var name="x44" ub="1e3"/><var name="x45" ub="1e3"/><var name="x46" ub="1e3"/><var name="x47" ub="1e3"/><var name="x48" ub="1e3"/><var name="x49" ub="1e3"/><var name="x50" ub="1e3"/><var name="x51" ub="1e3"/><var name="x52" ub="1e3"/><var name="x53" ub="1e3"/><var name="x54" ub="1e3"/><var name="b55" type="B" ub="1"/><var name="b56" type="B" ub="1"/><var name="b57" type="B" ub="1"/><var name="b58" type="B" ub="1"/><var name="b59" type="B" ub="1"/><var name="b60" type="B" ub="1"/><var name="b61" type="B" ub="1"/><var name="b62" type="B" ub="1"/><var name="b63" type="B" ub="1"/><var name="b64" type="B" ub="1"/><var name="b65" type="B" ub="1"/><var name="b66" type="B" ub="1"/></variables><objectives><obj maxOrMin="min" name="defObj_objvar" numberOfObjCoef="57"><coef idx="0">115.274</coef><coef idx="1">98.5559</coef><coef idx="2">142.777</coef><coef idx="3">33.9886</coef><coef idx="4">163.087</coef><coef idx="5">10.4376</coef><coef idx="6">234.406</coef><coef idx="7">142.066</coef><coef idx="8">50.6436</coef><coef idx="9">123.61</coef><coef idx="10">242.356</coef><coef idx="11">135.071</coef><coef idx="12">10.7347</coef><coef idx="13">56.0272</coef><coef idx="14">14.912</coef><coef idx="15">169.218</coef><coef idx="16">209.028</coef><coef idx="17">259.29</coef><coef idx="18">165.41</coef><coef idx="19">40.7497</coef><coef idx="20">124.907</coef><coef idx="21">18.495</coef><coef idx="22">95.2789</coef><coef idx="23">251.899</coef><coef idx="24">114.185</coef><coef idx="25">37.8148</coef><coef idx="26">10.5547</coef><coef idx="27">52.5162</coef><coef idx="28">37.4727</coef><coef idx="29">254.843</coef><coef idx="30">266.645</coef><coef idx="31">136.583</coef><coef idx="32">15.092</coef><coef idx="33">194.101</coef><coef idx="34">78.768</coef><coef idx="35">120.36</coef><coef idx="36">257.318</coef><coef idx="37">172.747</coef><coef idx="38">142.813</coef><coef idx="39">251.331</coef><coef idx="40">15.9113</coef><coef idx="41">48.8251</coef><coef idx="42">289.116</coef><coef idx="43">129.705</coef><coef idx="44">275.621</coef><coef idx="45">20.2235</coef><coef idx="46">253.789</coef><coef idx="47">56.7474</coef><coef idx="48">201.646</coef><coef idx="49">164.573</coef><coef idx="50">295.157</coef><coef idx="51">151.474</coef><coef idx="52">221.794</coef><coef idx="53">278.304</coef><coef idx="63">2.4814e6</coef><coef idx="64">2.15646e6</coef><coef idx="65">2.09773e6</coef></obj></objectives><constraints numberOfConstraints="33"><con name="e2" ub="60"/><con name="e3" ub="60"/><con name="e4" ub="60"/><con name="e5" ub="60"/><con name="e6" ub="60"/><con name="e7" ub="60"/><con name="e8" lb="0" ub="0"/><con name="e9" lb="0" ub="0"/><con name="e10" lb="0" ub="0"/><con name="e11" lb="0" ub="0"/><con name="e12" lb="0" ub="0"/><con name="e13" lb="0" ub="0"/><con name="e14" lb="0" ub="0"/><con name="e15" lb="0" ub="0"/><con name="e16" lb="0" ub="0"/><con name="e17" lb="0" ub="0"/><con name="e18" lb="0" ub="0"/><con name="e19" lb="0" ub="0"/><con name="e20" lb="0" ub="0"/><con name="e21" lb="0" ub="0"/><con name="e22" lb="0" ub="0"/><con name="e23" lb="0" ub="0"/><con name="e24" lb="0" ub="0"/><con name="e25" lb="0" ub="0"/><con name="e26" ub="0"/><con name="e27" ub="0"/><con name="e28" ub="0"/><con name="e29" lb="0"/><con name="e30" lb="0"/><con name="e31" lb="0"/><con name="e32" lb="1" ub="1"/><con name="e33" lb="1" ub="1"/><con name="e34" lb="1" ub="1"/></constraints><linearConstraintCoefficients numberOfValues="159"><start><el mult="7" incr="9">0</el><el mult="24" incr="4">58</el><el mult="3" incr="3">153</el></start><colIdx><el mult="9" incr="2">0</el><el mult="9" incr="2">1</el><el mult="9" incr="2">18</el><el mult="9" incr="2">19</el><el mult="9" incr="2">36</el><el mult="9" incr="2">37</el><el mult="4" incr="18">0</el><el mult="3" incr="18">1</el><el>54</el><el mult="3" incr="18">2</el><el>55</el><el mult="3" incr="18">3</el><el>55</el><el mult="3" incr="18">4</el><el>56</el><el mult="3" incr="18">5</el><el>56</el><el mult="3" incr="18">6</el><el>57</el><el mult="3" incr="18">7</el><el>57</el><el mult="3" incr="18">8</el><el>58</el><el mult="3" incr="18">9</el><el>58</el><el mult="3" incr="18">10</el><el>59</el><el mult="3" incr="18">11</el><el>59</el><el mult="3" incr="18">12</el><el>60</el><el mult="3" incr="18">13</el><el>60</el><el mult="3" incr="18">14</el><el>61</el><el mult="3" incr="18">15</el><el>61</el><el mult="3" incr="18">16</el><el>62</el><el mult="3" incr="18">17</el><el>62</el><el mult="3" incr="1">54</el><el>63</el><el mult="3" incr="1">57</el><el>64</el><el mult="3" incr="1">60</el><el>65</el><el mult="3" incr="1">54</el><el>63</el><el mult="3" incr="1">57</el><el>64</el><el mult="3" incr="1">60</el><el>65</el><el mult="3" incr="3">54</el><el mult="3" incr="3">55</el><el mult="3" incr="3">56</el></colIdx><value><el mult="57">1</el><el>-60</el><el mult="3">1</el><el>-60</el><el mult="3">1</el><el>-60</el><el mult="3">1</el><el>-60</el><el mult="3">1</el><el>-60</el><el mult="3">1</el><el>-60</el><el mult="3">1</el><el>-60</el><el mult="3">1</el><el>-60</el><el mult="3">1</el><el>-60</el><el mult="3">1</el><el>-60</el><el mult="3">1</el><el>-60</el><el mult="3">1</el><el>-60</el><el mult="3">1</el><el>-60</el><el mult="3">1</el><el>-60</el><el mult="3">1</el><el>-60</el><el mult="3">1</el><el>-60</el><el mult="3">1</el><el>-60</el><el mult="3">1</el><el>-60</el><el mult="3">1.2e2</el><el>-2749.5</el><el mult="3">1.2e2</el><el>-2872.94</el><el mult="3">1.2e2</el><el>-2508.06</el><el mult="3">1.2e2</el><el>-50</el><el mult="3">1.2e2</el><el>-50</el><el mult="3">1.2e2</el><el>-50</el><el mult="9">1</el></value></linearConstraintCoefficients><quadraticCoefficients numberOfQuadraticTerms="513"><qTerm idx="-1" idxOne="0" idxTwo="0" coef="276.28"/><qTerm idx="-1" idxOne="0" idxTwo="1" coef="552.56"/><qTerm idx="-1" idxOne="0" idxTwo="2" coef="552.56"/><qTerm idx="-1" idxOne="0" idxTwo="3" coef="552.56"/><qTerm idx="-1" idxOne="0" idxTwo="4" coef="552.56"/><qTerm idx="-1" idxOne="0" idxTwo="5" coef="552.56"/><qTerm idx="-1" idxOne="0" idxTwo="18" coef="552.56"/><qTerm idx="-1" idxOne="0" idxTwo="19" coef="552.56"/><qTerm idx="-1" idxOne="0" idxTwo="20" coef="552.56"/><qTerm idx="-1" idxOne="0" idxTwo="21" coef="552.56"/><qTerm idx="-1" idxOne="0" idxTwo="22" coef="552.56"/><qTerm idx="-1" idxOne="0" idxTwo="23" coef="552.56"/><qTerm idx="-1" idxOne="0" idxTwo="36" coef="552.56"/><qTerm idx="-1" idxOne="0" idxTwo="37" coef="552.56"/><qTerm idx="-1" idxOne="0" idxTwo="38" coef="552.56"/><qTerm idx="-1" idxOne="0" idxTwo="39" coef="552.56"/><qTerm idx="-1" idxOne="0" idxTwo="40" coef="552.56"/><qTerm idx="-1" idxOne="0" idxTwo="41" coef="552.56"/><qTerm idx="-1" idxOne="1" idxTwo="1" coef="276.28"/><qTerm idx="-1" idxOne="1" idxTwo="2" coef="552.56"/><qTerm idx="-1" idxOne="1" idxTwo="3" coef="552.56"/><qTerm idx="-1" idxOne="1" idxTwo="4" coef="552.56"/><qTerm idx="-1" idxOne="1" idxTwo="5" coef="552.56"/><qTerm idx="-1" idxOne="1" idxTwo="18" coef="552.56"/><qTerm idx="-1" idxOne="1" idxTwo="19" coef="552.56"/><qTerm idx="-1" idxOne="1" idxTwo="20" coef="552.56"/><qTerm idx="-1" idxOne="1" idxTwo="21" coef="552.56"/><qTerm idx="-1" idxOne="1" idxTwo="22" coef="552.56"/><qTerm idx="-1" idxOne="1" idxTwo="23" coef="552.56"/><qTerm idx="-1" idxOne="1" idxTwo="36" coef="552.56"/><qTerm idx="-1" idxOne="1" idxTwo="37" coef="552.56"/><qTerm idx="-1" idxOne="1" idxTwo="38" coef="552.56"/><qTerm idx="-1" idxOne="1" idxTwo="39" coef="552.56"/><qTerm idx="-1" idxOne="1" idxTwo="40" coef="552.56"/><qTerm idx="-1" idxOne="1" idxTwo="41" coef="552.56"/><qTerm idx="-1" idxOne="2" idxTwo="2" coef="276.28"/><qTerm idx="-1" idxOne="2" idxTwo="3" coef="552.56"/><qTerm idx="-1" idxOne="2" idxTwo="4" coef="552.56"/><qTerm idx="-1" idxOne="2" idxTwo="5" coef="552.56"/><qTerm idx="-1" idxOne="2" idxTwo="18" coef="552.56"/><qTerm idx="-1" idxOne="2" idxTwo="19" coef="552.56"/><qTerm idx="-1" idxOne="2" idxTwo="20" coef="552.56"/><qTerm idx="-1" idxOne="2" idxTwo="21" coef="552.56"/><qTerm idx="-1" idxOne="2" idxTwo="22" coef="552.56"/><qTerm idx="-1" idxOne="2" idxTwo="23" coef="552.56"/><qTerm idx="-1" idxOne="2" idxTwo="36" coef="552.56"/><qTerm idx="-1" idxOne="2" idxTwo="37" coef="552.56"/><qTerm idx="-1" idxOne="2" idxTwo="38" coef="552.56"/><qTerm idx="-1" idxOne="2" idxTwo="39" coef="552.56"/><qTerm idx="-1" idxOne="2" idxTwo="40" coef="552.56"/><qTerm idx="-1" idxOne="2" idxTwo="41" coef="552.56"/><qTerm idx="-1" idxOne="3" idxTwo="3" coef="276.28"/><qTerm idx="-1" idxOne="3" idxTwo="4" coef="552.56"/><qTerm idx="-1" idxOne="3" idxTwo="5" coef="552.56"/><qTerm idx="-1" idxOne="3" idxTwo="18" coef="552.56"/><qTerm idx="-1" idxOne="3" idxTwo="19" coef="552.56"/><qTerm idx="-1" idxOne="3" idxTwo="20" coef="552.56"/><qTerm idx="-1" idxOne="3" idxTwo="21" coef="552.56"/><qTerm idx="-1" idxOne="3" idxTwo="22" coef="552.56"/><qTerm idx="-1" idxOne="3" idxTwo="23" coef="552.56"/><qTerm idx="-1" idxOne="3" idxTwo="36" coef="552.56"/><qTerm idx="-1" idxOne="3" idxTwo="37" coef="552.56"/><qTerm idx="-1" idxOne="3" idxTwo="38" coef="552.56"/><qTerm idx="-1" idxOne="3" idxTwo="39" coef="552.56"/><qTerm idx="-1" idxOne="3" idxTwo="40" coef="552.56"/><qTerm idx="-1" idxOne="3" idxTwo="41" coef="552.56"/><qTerm idx="-1" idxOne="4" idxTwo="4" coef="276.28"/><qTerm idx="-1" idxOne="4" idxTwo="5" coef="552.56"/><qTerm idx="-1" idxOne="4" idxTwo="18" coef="552.56"/><qTerm idx="-1" idxOne="4" idxTwo="19" coef="552.56"/><qTerm idx="-1" idxOne="4" idxTwo="20" coef="552.56"/><qTerm idx="-1" idxOne="4" idxTwo="21" coef="552.56"/><qTerm idx="-1" idxOne="4" idxTwo="22" coef="552.56"/><qTerm idx="-1" idxOne="4" idxTwo="23" coef="552.56"/><qTerm idx="-1" idxOne="4" idxTwo="36" coef="552.56"/><qTerm idx="-1" idxOne="4" idxTwo="37" coef="552.56"/><qTerm idx="-1" idxOne="4" idxTwo="38" coef="552.56"/><qTerm idx="-1" idxOne="4" idxTwo="39" coef="552.56"/><qTerm idx="-1" idxOne="4" idxTwo="40" coef="552.56"/><qTerm idx="-1" idxOne="4" idxTwo="41" coef="552.56"/><qTerm idx="-1" idxOne="5" idxTwo="5" coef="276.28"/><qTerm idx="-1" idxOne="5" idxTwo="18" coef="552.56"/><qTerm idx="-1" idxOne="5" idxTwo="19" coef="552.56"/><qTerm idx="-1" idxOne="5" idxTwo="20" coef="552.56"/><qTerm idx="-1" idxOne="5" idxTwo="21" coef="552.56"/><qTerm idx="-1" idxOne="5" idxTwo="22" coef="552.56"/><qTerm idx="-1" idxOne="5" idxTwo="23" coef="552.56"/><qTerm idx="-1" idxOne="5" idxTwo="36" coef="552.56"/><qTerm idx="-1" idxOne="5" idxTwo="37" coef="552.56"/><qTerm idx="-1" idxOne="5" idxTwo="38" coef="552.56"/><qTerm idx="-1" idxOne="5" idxTwo="39" coef="552.56"/><qTerm idx="-1" idxOne="5" idxTwo="40" coef="552.56"/><qTerm idx="-1" idxOne="5" idxTwo="41" coef="552.56"/><qTerm idx="-1" idxOne="6" idxTwo="6" coef="792.912"/><qTerm idx="-1" idxOne="6" idxTwo="7" coef="1585.824"/><qTerm idx="-1" idxOne="6" idxTwo="8" coef="1585.824"/><qTerm idx="-1" idxOne="6" idxTwo="9" coef="1585.824"/><qTerm idx="-1" idxOne="6" idxTwo="10" coef="1585.824"/><qTerm idx="-1" idxOne="6" idxTwo="11" coef="1585.824"/><qTerm idx="-1" idxOne="6" idxTwo="24" coef="1585.824"/><qTerm idx="-1" idxOne="6" idxTwo="25" coef="1585.824"/><qTerm idx="-1" idxOne="6" idxTwo="26" coef="1585.824"/><qTerm idx="-1" idxOne="6" idxTwo="27" coef="1585.824"/><qTerm idx="-1" idxOne="6" idxTwo="28" coef="1585.824"/><qTerm idx="-1" idxOne="6" idxTwo="29" coef="1585.824"/><qTerm idx="-1" idxOne="6" idxTwo="42" coef="1585.824"/><qTerm idx="-1" idxOne="6" idxTwo="43" coef="1585.824"/><qTerm idx="-1" idxOne="6" idxTwo="44" coef="1585.824"/><qTerm idx="-1" idxOne="6" idxTwo="45" coef="1585.824"/><qTerm idx="-1" idxOne="6" idxTwo="46" coef="1585.824"/><qTerm idx="-1" idxOne="6" idxTwo="47" coef="1585.824"/><qTerm idx="-1" idxOne="7" idxTwo="7" coef="792.912"/><qTerm idx="-1" idxOne="7" idxTwo="8" coef="1585.824"/><qTerm idx="-1" idxOne="7" idxTwo="9" coef="1585.824"/><qTerm idx="-1" idxOne="7" idxTwo="10" coef="1585.824"/><qTerm idx="-1" idxOne="7" idxTwo="11" coef="1585.824"/><qTerm idx="-1" idxOne="7" idxTwo="24" coef="1585.824"/><qTerm idx="-1" idxOne="7" idxTwo="25" coef="1585.824"/><qTerm idx="-1" idxOne="7" idxTwo="26" coef="1585.824"/><qTerm idx="-1" idxOne="7" idxTwo="27" coef="1585.824"/><qTerm idx="-1" idxOne="7" idxTwo="28" coef="1585.824"/><qTerm idx="-1" idxOne="7" idxTwo="29" coef="1585.824"/><qTerm idx="-1" idxOne="7" idxTwo="42" coef="1585.824"/><qTerm idx="-1" idxOne="7" idxTwo="43" coef="1585.824"/><qTerm idx="-1" idxOne="7" idxTwo="44" coef="1585.824"/><qTerm idx="-1" idxOne="7" idxTwo="45" coef="1585.824"/><qTerm idx="-1" idxOne="7" idxTwo="46" coef="1585.824"/><qTerm idx="-1" idxOne="7" idxTwo="47" coef="1585.824"/><qTerm idx="-1" idxOne="8" idxTwo="8" coef="792.912"/><qTerm idx="-1" idxOne="8" idxTwo="9" coef="1585.824"/><qTerm idx="-1" idxOne="8" idxTwo="10" coef="1585.824"/><qTerm idx="-1" idxOne="8" idxTwo="11" coef="1585.824"/><qTerm idx="-1" idxOne="8" idxTwo="24" coef="1585.824"/><qTerm idx="-1" idxOne="8" idxTwo="25" coef="1585.824"/><qTerm idx="-1" idxOne="8" idxTwo="26" coef="1585.824"/><qTerm idx="-1" idxOne="8" idxTwo="27" coef="1585.824"/><qTerm idx="-1" idxOne="8" idxTwo="28" coef="1585.824"/><qTerm idx="-1" idxOne="8" idxTwo="29" coef="1585.824"/><qTerm idx="-1" idxOne="8" idxTwo="42" coef="1585.824"/><qTerm idx="-1" idxOne="8" idxTwo="43" coef="1585.824"/><qTerm idx="-1" idxOne="8" idxTwo="44" coef="1585.824"/><qTerm idx="-1" idxOne="8" idxTwo="45" coef="1585.824"/><qTerm idx="-1" idxOne="8" idxTwo="46" coef="1585.824"/><qTerm idx="-1" idxOne="8" idxTwo="47" coef="1585.824"/><qTerm idx="-1" idxOne="9" idxTwo="9" coef="792.912"/><qTerm idx="-1" idxOne="9" idxTwo="10" coef="1585.824"/><qTerm idx="-1" idxOne="9" idxTwo="11" coef="1585.824"/><qTerm idx="-1" idxOne="9" idxTwo="24" coef="1585.824"/><qTerm idx="-1" idxOne="9" idxTwo="25" coef="1585.824"/><qTerm idx="-1" idxOne="9" idxTwo="26" coef="1585.824"/><qTerm idx="-1" idxOne="9" idxTwo="27" coef="1585.824"/><qTerm idx="-1" idxOne="9" idxTwo="28" coef="1585.824"/><qTerm idx="-1" idxOne="9" idxTwo="29" coef="1585.824"/><qTerm idx="-1" idxOne="9" idxTwo="42" coef="1585.824"/><qTerm idx="-1" idxOne="9" idxTwo="43" coef="1585.824"/><qTerm idx="-1" idxOne="9" idxTwo="44" coef="1585.824"/><qTerm idx="-1" idxOne="9" idxTwo="45" coef="1585.824"/><qTerm idx="-1" idxOne="9" idxTwo="46" coef="1585.824"/><qTerm idx="-1" idxOne="9" idxTwo="47" coef="1585.824"/><qTerm idx="-1" idxOne="10" idxTwo="10" coef="792.912"/><qTerm idx="-1" idxOne="10" idxTwo="11" coef="1585.824"/><qTerm idx="-1" idxOne="10" idxTwo="24" coef="1585.824"/><qTerm idx="-1" idxOne="10" idxTwo="25" coef="1585.824"/><qTerm idx="-1" idxOne="10" idxTwo="26" coef="1585.824"/><qTerm idx="-1" idxOne="10" idxTwo="27" coef="1585.824"/><qTerm idx="-1" idxOne="10" idxTwo="28" coef="1585.824"/><qTerm idx="-1" idxOne="10" idxTwo="29" coef="1585.824"/><qTerm idx="-1" idxOne="10" idxTwo="42" coef="1585.824"/><qTerm idx="-1" idxOne="10" idxTwo="43" coef="1585.824"/><qTerm idx="-1" idxOne="10" idxTwo="44" coef="1585.824"/><qTerm idx="-1" idxOne="10" idxTwo="45" coef="1585.824"/><qTerm idx="-1" idxOne="10" idxTwo="46" coef="1585.824"/><qTerm idx="-1" idxOne="10" idxTwo="47" coef="1585.824"/><qTerm idx="-1" idxOne="11" idxTwo="11" coef="792.912"/><qTerm idx="-1" idxOne="11" idxTwo="24" coef="1585.824"/><qTerm idx="-1" idxOne="11" idxTwo="25" coef="1585.824"/><qTerm idx="-1" idxOne="11" idxTwo="26" coef="1585.824"/><qTerm idx="-1" idxOne="11" idxTwo="27" coef="1585.824"/><qTerm idx="-1" idxOne="11" idxTwo="28" coef="1585.824"/><qTerm idx="-1" idxOne="11" idxTwo="29" coef="1585.824"/><qTerm idx="-1" idxOne="11" idxTwo="42" coef="1585.824"/><qTerm idx="-1" idxOne="11" idxTwo="43" coef="1585.824"/><qTerm idx="-1" idxOne="11" idxTwo="44" coef="1585.824"/><qTerm idx="-1" idxOne="11" idxTwo="45" coef="1585.824"/><qTerm idx="-1" idxOne="11" idxTwo="46" coef="1585.824"/><qTerm idx="-1" idxOne="11" idxTwo="47" coef="1585.824"/><qTerm idx="-1" idxOne="12" idxTwo="12" coef="991.679"/><qTerm idx="-1" idxOne="12" idxTwo="13" coef="1983.358"/><qTerm idx="-1" idxOne="12" idxTwo="14" coef="1983.358"/><qTerm idx="-1" idxOne="12" idxTwo="15" coef="1983.358"/><qTerm idx="-1" idxOne="12" idxTwo="16" coef="1983.358"/><qTerm idx="-1" idxOne="12" idxTwo="17" coef="1983.358"/><qTerm idx="-1" idxOne="12" idxTwo="30" coef="1983.358"/><qTerm idx="-1" idxOne="12" idxTwo="31" coef="1983.358"/><qTerm idx="-1" idxOne="12" idxTwo="32" coef="1983.358"/><qTerm idx="-1" idxOne="12" idxTwo="33" coef="1983.358"/><qTerm idx="-1" idxOne="12" idxTwo="34" coef="1983.358"/><qTerm idx="-1" idxOne="12" idxTwo="35" coef="1983.358"/><qTerm idx="-1" idxOne="12" idxTwo="48" coef="1983.358"/><qTerm idx="-1" idxOne="12" idxTwo="49" coef="1983.358"/><qTerm idx="-1" idxOne="12" idxTwo="50" coef="1983.358"/><qTerm idx="-1" idxOne="12" idxTwo="51" coef="1983.358"/><qTerm idx="-1" idxOne="12" idxTwo="52" coef="1983.358"/><qTerm idx="-1" idxOne="12" idxTwo="53" coef="1983.358"/><qTerm idx="-1" idxOne="13" idxTwo="13" coef="991.679"/><qTerm idx="-1" idxOne="13" idxTwo="14" coef="1983.358"/><qTerm idx="-1" idxOne="13" idxTwo="15" coef="1983.358"/><qTerm idx="-1" idxOne="13" idxTwo="16" coef="1983.358"/><qTerm idx="-1" idxOne="13" idxTwo="17" coef="1983.358"/><qTerm idx="-1" idxOne="13" idxTwo="30" coef="1983.358"/><qTerm idx="-1" idxOne="13" idxTwo="31" coef="1983.358"/><qTerm idx="-1" idxOne="13" idxTwo="32" coef="1983.358"/><qTerm idx="-1" idxOne="13" idxTwo="33" coef="1983.358"/><qTerm idx="-1" idxOne="13" idxTwo="34" coef="1983.358"/><qTerm idx="-1" idxOne="13" idxTwo="35" coef="1983.358"/><qTerm idx="-1" idxOne="13" idxTwo="48" coef="1983.358"/><qTerm idx="-1" idxOne="13" idxTwo="49" coef="1983.358"/><qTerm idx="-1" idxOne="13" idxTwo="50" coef="1983.358"/><qTerm idx="-1" idxOne="13" idxTwo="51" coef="1983.358"/><qTerm idx="-1" idxOne="13" idxTwo="52" coef="1983.358"/><qTerm idx="-1" idxOne="13" idxTwo="53" coef="1983.358"/><qTerm idx="-1" idxOne="14" idxTwo="14" coef="991.679"/><qTerm idx="-1" idxOne="14" idxTwo="15" coef="1983.358"/><qTerm idx="-1" idxOne="14" idxTwo="16" coef="1983.358"/><qTerm idx="-1" idxOne="14" idxTwo="17" coef="1983.358"/><qTerm idx="-1" idxOne="14" idxTwo="30" coef="1983.358"/><qTerm idx="-1" idxOne="14" idxTwo="31" coef="1983.358"/><qTerm idx="-1" idxOne="14" idxTwo="32" coef="1983.358"/><qTerm idx="-1" idxOne="14" idxTwo="33" coef="1983.358"/><qTerm idx="-1" idxOne="14" idxTwo="34" coef="1983.358"/><qTerm idx="-1" idxOne="14" idxTwo="35" coef="1983.358"/><qTerm idx="-1" idxOne="14" idxTwo="48" coef="1983.358"/><qTerm idx="-1" idxOne="14" idxTwo="49" coef="1983.358"/><qTerm idx="-1" idxOne="14" idxTwo="50" coef="1983.358"/><qTerm idx="-1" idxOne="14" idxTwo="51" coef="1983.358"/><qTerm idx="-1" idxOne="14" idxTwo="52" coef="1983.358"/><qTerm idx="-1" idxOne="14" idxTwo="53" coef="1983.358"/><qTerm idx="-1" idxOne="15" idxTwo="15" coef="991.679"/><qTerm idx="-1" idxOne="15" idxTwo="16" coef="1983.358"/><qTerm idx="-1" idxOne="15" idxTwo="17" coef="1983.358"/><qTerm idx="-1" idxOne="15" idxTwo="30" coef="1983.358"/><qTerm idx="-1" idxOne="15" idxTwo="31" coef="1983.358"/><qTerm idx="-1" idxOne="15" idxTwo="32" coef="1983.358"/><qTerm idx="-1" idxOne="15" idxTwo="33" coef="1983.358"/><qTerm idx="-1" idxOne="15" idxTwo="34" coef="1983.358"/><qTerm idx="-1" idxOne="15" idxTwo="35" coef="1983.358"/><qTerm idx="-1" idxOne="15" idxTwo="48" coef="1983.358"/><qTerm idx="-1" idxOne="15" idxTwo="49" coef="1983.358"/><qTerm idx="-1" idxOne="15" idxTwo="50" coef="1983.358"/><qTerm idx="-1" idxOne="15" idxTwo="51" coef="1983.358"/><qTerm idx="-1" idxOne="15" idxTwo="52" coef="1983.358"/><qTerm idx="-1" idxOne="15" idxTwo="53" coef="1983.358"/><qTerm idx="-1" idxOne="16" idxTwo="16" coef="991.679"/><qTerm idx="-1" idxOne="16" idxTwo="17" coef="1983.358"/><qTerm idx="-1" idxOne="16" idxTwo="30" coef="1983.358"/><qTerm idx="-1" idxOne="16" idxTwo="31" coef="1983.358"/><qTerm idx="-1" idxOne="16" idxTwo="32" coef="1983.358"/><qTerm idx="-1" idxOne="16" idxTwo="33" coef="1983.358"/><qTerm idx="-1" idxOne="16" idxTwo="34" coef="1983.358"/><qTerm idx="-1" idxOne="16" idxTwo="35" coef="1983.358"/><qTerm idx="-1" idxOne="16" idxTwo="48" coef="1983.358"/><qTerm idx="-1" idxOne="16" idxTwo="49" coef="1983.358"/><qTerm idx="-1" idxOne="16" idxTwo="50" coef="1983.358"/><qTerm idx="-1" idxOne="16" idxTwo="51" coef="1983.358"/><qTerm idx="-1" idxOne="16" idxTwo="52" coef="1983.358"/><qTerm idx="-1" idxOne="16" idxTwo="53" coef="1983.358"/><qTerm idx="-1" idxOne="17" idxTwo="17" coef="991.679"/><qTerm idx="-1" idxOne="17" idxTwo="30" coef="1983.358"/><qTerm idx="-1" idxOne="17" idxTwo="31" coef="1983.358"/><qTerm idx="-1" idxOne="17" idxTwo="32" coef="1983.358"/><qTerm idx="-1" idxOne="17" idxTwo="33" coef="1983.358"/><qTerm idx="-1" idxOne="17" idxTwo="34" coef="1983.358"/><qTerm idx="-1" idxOne="17" idxTwo="35" coef="1983.358"/><qTerm idx="-1" idxOne="17" idxTwo="48" coef="1983.358"/><qTerm idx="-1" idxOne="17" idxTwo="49" coef="1983.358"/><qTerm idx="-1" idxOne="17" idxTwo="50" coef="1983.358"/><qTerm idx="-1" idxOne="17" idxTwo="51" coef="1983.358"/><qTerm idx="-1" idxOne="17" idxTwo="52" coef="1983.358"/><qTerm idx="-1" idxOne="17" idxTwo="53" coef="1983.358"/><qTerm idx="-1" idxOne="18" idxTwo="18" coef="276.28"/><qTerm idx="-1" idxOne="18" idxTwo="19" coef="552.56"/><qTerm idx="-1" idxOne="18" idxTwo="20" coef="552.56"/><qTerm idx="-1" idxOne="18" idxTwo="21" coef="552.56"/><qTerm idx="-1" idxOne="18" idxTwo="22" coef="552.56"/><qTerm idx="-1" idxOne="18" idxTwo="23" coef="552.56"/><qTerm idx="-1" idxOne="18" idxTwo="36" coef="552.56"/><qTerm idx="-1" idxOne="18" idxTwo="37" coef="552.56"/><qTerm idx="-1" idxOne="18" idxTwo="38" coef="552.56"/><qTerm idx="-1" idxOne="18" idxTwo="39" coef="552.56"/><qTerm idx="-1" idxOne="18" idxTwo="40" coef="552.56"/><qTerm idx="-1" idxOne="18" idxTwo="41" coef="552.56"/><qTerm idx="-1" idxOne="19" idxTwo="19" coef="276.28"/><qTerm idx="-1" idxOne="19" idxTwo="20" coef="552.56"/><qTerm idx="-1" idxOne="19" idxTwo="21" coef="552.56"/><qTerm idx="-1" idxOne="19" idxTwo="22" coef="552.56"/><qTerm idx="-1" idxOne="19" idxTwo="23" coef="552.56"/><qTerm idx="-1" idxOne="19" idxTwo="36" coef="552.56"/><qTerm idx="-1" idxOne="19" idxTwo="37" coef="552.56"/><qTerm idx="-1" idxOne="19" idxTwo="38" coef="552.56"/><qTerm idx="-1" idxOne="19" idxTwo="39" coef="552.56"/><qTerm idx="-1" idxOne="19" idxTwo="40" coef="552.56"/><qTerm idx="-1" idxOne="19" idxTwo="41" coef="552.56"/><qTerm idx="-1" idxOne="20" idxTwo="20" coef="276.28"/><qTerm idx="-1" idxOne="20" idxTwo="21" coef="552.56"/><qTerm idx="-1" idxOne="20" idxTwo="22" coef="552.56"/><qTerm idx="-1" idxOne="20" idxTwo="23" coef="552.56"/><qTerm idx="-1" idxOne="20" idxTwo="36" coef="552.56"/><qTerm idx="-1" idxOne="20" idxTwo="37" coef="552.56"/><qTerm idx="-1" idxOne="20" idxTwo="38" coef="552.56"/><qTerm idx="-1" idxOne="20" idxTwo="39" coef="552.56"/><qTerm idx="-1" idxOne="20" idxTwo="40" coef="552.56"/><qTerm idx="-1" idxOne="20" idxTwo="41" coef="552.56"/><qTerm idx="-1" idxOne="21" idxTwo="21" coef="276.28"/><qTerm idx="-1" idxOne="21" idxTwo="22" coef="552.56"/><qTerm idx="-1" idxOne="21" idxTwo="23" coef="552.56"/><qTerm idx="-1" idxOne="21" idxTwo="36" coef="552.56"/><qTerm idx="-1" idxOne="21" idxTwo="37" coef="552.56"/><qTerm idx="-1" idxOne="21" idxTwo="38" coef="552.56"/><qTerm idx="-1" idxOne="21" idxTwo="39" coef="552.56"/><qTerm idx="-1" idxOne="21" idxTwo="40" coef="552.56"/><qTerm idx="-1" idxOne="21" idxTwo="41" coef="552.56"/><qTerm idx="-1" idxOne="22" idxTwo="22" coef="276.28"/><qTerm idx="-1" idxOne="22" idxTwo="23" coef="552.56"/><qTerm idx="-1" idxOne="22" idxTwo="36" coef="552.56"/><qTerm idx="-1" idxOne="22" idxTwo="37" coef="552.56"/><qTerm idx="-1" idxOne="22" idxTwo="38" coef="552.56"/><qTerm idx="-1" idxOne="22" idxTwo="39" coef="552.56"/><qTerm idx="-1" idxOne="22" idxTwo="40" coef="552.56"/><qTerm idx="-1" idxOne="22" idxTwo="41" coef="552.56"/><qTerm idx="-1" idxOne="23" idxTwo="23" coef="276.28"/><qTerm idx="-1" idxOne="23" idxTwo="36" coef="552.56"/><qTerm idx="-1" idxOne="23" idxTwo="37" coef="552.56"/><qTerm idx="-1" idxOne="23" idxTwo="38" coef="552.56"/><qTerm idx="-1" idxOne="23" idxTwo="39" coef="552.56"/><qTerm idx="-1" idxOne="23" idxTwo="40" coef="552.56"/><qTerm idx="-1" idxOne="23" idxTwo="41" coef="552.56"/><qTerm idx="-1" idxOne="24" idxTwo="24" coef="792.912"/><qTerm idx="-1" idxOne="24" idxTwo="25" coef="1585.824"/><qTerm idx="-1" idxOne="24" idxTwo="26" coef="1585.824"/><qTerm idx="-1" idxOne="24" idxTwo="27" coef="1585.824"/><qTerm idx="-1" idxOne="24" idxTwo="28" coef="1585.824"/><qTerm idx="-1" idxOne="24" idxTwo="29" coef="1585.824"/><qTerm idx="-1" idxOne="24" idxTwo="42" coef="1585.824"/><qTerm idx="-1" idxOne="24" idxTwo="43" coef="1585.824"/><qTerm idx="-1" idxOne="24" idxTwo="44" coef="1585.824"/><qTerm idx="-1" idxOne="24" idxTwo="45" coef="1585.824"/><qTerm idx="-1" idxOne="24" idxTwo="46" coef="1585.824"/><qTerm idx="-1" idxOne="24" idxTwo="47" coef="1585.824"/><qTerm idx="-1" idxOne="25" idxTwo="25" coef="792.912"/><qTerm idx="-1" idxOne="25" idxTwo="26" coef="1585.824"/><qTerm idx="-1" idxOne="25" idxTwo="27" coef="1585.824"/><qTerm idx="-1" idxOne="25" idxTwo="28" coef="1585.824"/><qTerm idx="-1" idxOne="25" idxTwo="29" coef="1585.824"/><qTerm idx="-1" idxOne="25" idxTwo="42" coef="1585.824"/><qTerm idx="-1" idxOne="25" idxTwo="43" coef="1585.824"/><qTerm idx="-1" idxOne="25" idxTwo="44" coef="1585.824"/><qTerm idx="-1" idxOne="25" idxTwo="45" coef="1585.824"/><qTerm idx="-1" idxOne="25" idxTwo="46" coef="1585.824"/><qTerm idx="-1" idxOne="25" idxTwo="47" coef="1585.824"/><qTerm idx="-1" idxOne="26" idxTwo="26" coef="792.912"/><qTerm idx="-1" idxOne="26" idxTwo="27" coef="1585.824"/><qTerm idx="-1" idxOne="26" idxTwo="28" coef="1585.824"/><qTerm idx="-1" idxOne="26" idxTwo="29" coef="1585.824"/><qTerm idx="-1" idxOne="26" idxTwo="42" coef="1585.824"/><qTerm idx="-1" idxOne="26" idxTwo="43" coef="1585.824"/><qTerm idx="-1" idxOne="26" idxTwo="44" coef="1585.824"/><qTerm idx="-1" idxOne="26" idxTwo="45" coef="1585.824"/><qTerm idx="-1" idxOne="26" idxTwo="46" coef="1585.824"/><qTerm idx="-1" idxOne="26" idxTwo="47" coef="1585.824"/><qTerm idx="-1" idxOne="27" idxTwo="27" coef="792.912"/><qTerm idx="-1" idxOne="27" idxTwo="28" coef="1585.824"/><qTerm idx="-1" idxOne="27" idxTwo="29" coef="1585.824"/><qTerm idx="-1" idxOne="27" idxTwo="42" coef="1585.824"/><qTerm idx="-1" idxOne="27" idxTwo="43" coef="1585.824"/><qTerm idx="-1" idxOne="27" idxTwo="44" coef="1585.824"/><qTerm idx="-1" idxOne="27" idxTwo="45" coef="1585.824"/><qTerm idx="-1" idxOne="27" idxTwo="46" coef="1585.824"/><qTerm idx="-1" idxOne="27" idxTwo="47" coef="1585.824"/><qTerm idx="-1" idxOne="28" idxTwo="28" coef="792.912"/><qTerm idx="-1" idxOne="28" idxTwo="29" coef="1585.824"/><qTerm idx="-1" idxOne="28" idxTwo="42" coef="1585.824"/><qTerm idx="-1" idxOne="28" idxTwo="43" coef="1585.824"/><qTerm idx="-1" idxOne="28" idxTwo="44" coef="1585.824"/><qTerm idx="-1" idxOne="28" idxTwo="45" coef="1585.824"/><qTerm idx="-1" idxOne="28" idxTwo="46" coef="1585.824"/><qTerm idx="-1" idxOne="28" idxTwo="47" coef="1585.824"/><qTerm idx="-1" idxOne="29" idxTwo="29" coef="792.912"/><qTerm idx="-1" idxOne="29" idxTwo="42" coef="1585.824"/><qTerm idx="-1" idxOne="29" idxTwo="43" coef="1585.824"/><qTerm idx="-1" idxOne="29" idxTwo="44" coef="1585.824"/><qTerm idx="-1" idxOne="29" idxTwo="45" coef="1585.824"/><qTerm idx="-1" idxOne="29" idxTwo="46" coef="1585.824"/><qTerm idx="-1" idxOne="29" idxTwo="47" coef="1585.824"/><qTerm idx="-1" idxOne="30" idxTwo="30" coef="991.679"/><qTerm idx="-1" idxOne="30" idxTwo="31" coef="1983.358"/><qTerm idx="-1" idxOne="30" idxTwo="32" coef="1983.358"/><qTerm idx="-1" idxOne="30" idxTwo="33" coef="1983.358"/><qTerm idx="-1" idxOne="30" idxTwo="34" coef="1983.358"/><qTerm idx="-1" idxOne="30" idxTwo="35" coef="1983.358"/><qTerm idx="-1" idxOne="30" idxTwo="48" coef="1983.358"/><qTerm idx="-1" idxOne="30" idxTwo="49" coef="1983.358"/><qTerm idx="-1" idxOne="30" idxTwo="50" coef="1983.358"/><qTerm idx="-1" idxOne="30" idxTwo="51" coef="1983.358"/><qTerm idx="-1" idxOne="30" idxTwo="52" coef="1983.358"/><qTerm idx="-1" idxOne="30" idxTwo="53" coef="1983.358"/><qTerm idx="-1" idxOne="31" idxTwo="31" coef="991.679"/><qTerm idx="-1" idxOne="31" idxTwo="32" coef="1983.358"/><qTerm idx="-1" idxOne="31" idxTwo="33" coef="1983.358"/><qTerm idx="-1" idxOne="31" idxTwo="34" coef="1983.358"/><qTerm idx="-1" idxOne="31" idxTwo="35" coef="1983.358"/><qTerm idx="-1" idxOne="31" idxTwo="48" coef="1983.358"/><qTerm idx="-1" idxOne="31" idxTwo="49" coef="1983.358"/><qTerm idx="-1" idxOne="31" idxTwo="50" coef="1983.358"/><qTerm idx="-1" idxOne="31" idxTwo="51" coef="1983.358"/><qTerm idx="-1" idxOne="31" idxTwo="52" coef="1983.358"/><qTerm idx="-1" idxOne="31" idxTwo="53" coef="1983.358"/><qTerm idx="-1" idxOne="32" idxTwo="32" coef="991.679"/><qTerm idx="-1" idxOne="32" idxTwo="33" coef="1983.358"/><qTerm idx="-1" idxOne="32" idxTwo="34" coef="1983.358"/><qTerm idx="-1" idxOne="32" idxTwo="35" coef="1983.358"/><qTerm idx="-1" idxOne="32" idxTwo="48" coef="1983.358"/><qTerm idx="-1" idxOne="32" idxTwo="49" coef="1983.358"/><qTerm idx="-1" idxOne="32" idxTwo="50" coef="1983.358"/><qTerm idx="-1" idxOne="32" idxTwo="51" coef="1983.358"/><qTerm idx="-1" idxOne="32" idxTwo="52" coef="1983.358"/><qTerm idx="-1" idxOne="32" idxTwo="53" coef="1983.358"/><qTerm idx="-1" idxOne="33" idxTwo="33" coef="991.679"/><qTerm idx="-1" idxOne="33" idxTwo="34" coef="1983.358"/><qTerm idx="-1" idxOne="33" idxTwo="35" coef="1983.358"/><qTerm idx="-1" idxOne="33" idxTwo="48" coef="1983.358"/><qTerm idx="-1" idxOne="33" idxTwo="49" coef="1983.358"/><qTerm idx="-1" idxOne="33" idxTwo="50" coef="1983.358"/><qTerm idx="-1" idxOne="33" idxTwo="51" coef="1983.358"/><qTerm idx="-1" idxOne="33" idxTwo="52" coef="1983.358"/><qTerm idx="-1" idxOne="33" idxTwo="53" coef="1983.358"/><qTerm idx="-1" idxOne="34" idxTwo="34" coef="991.679"/><qTerm idx="-1" idxOne="34" idxTwo="35" coef="1983.358"/><qTerm idx="-1" idxOne="34" idxTwo="48" coef="1983.358"/><qTerm idx="-1" idxOne="34" idxTwo="49" coef="1983.358"/><qTerm idx="-1" idxOne="34" idxTwo="50" coef="1983.358"/><qTerm idx="-1" idxOne="34" idxTwo="51" coef="1983.358"/><qTerm idx="-1" idxOne="34" idxTwo="52" coef="1983.358"/><qTerm idx="-1" idxOne="34" idxTwo="53" coef="1983.358"/><qTerm idx="-1" idxOne="35" idxTwo="35" coef="991.679"/><qTerm idx="-1" idxOne="35" idxTwo="48" coef="1983.358"/><qTerm idx="-1" idxOne="35" idxTwo="49" coef="1983.358"/><qTerm idx="-1" idxOne="35" idxTwo="50" coef="1983.358"/><qTerm idx="-1" idxOne="35" idxTwo="51" coef="1983.358"/><qTerm idx="-1" idxOne="35" idxTwo="52" coef="1983.358"/><qTerm idx="-1" idxOne="35" idxTwo="53" coef="1983.358"/><qTerm idx="-1" idxOne="36" idxTwo="36" coef="276.28"/><qTerm idx="-1" idxOne="36" idxTwo="37" coef="552.56"/><qTerm idx="-1" idxOne="36" idxTwo="38" coef="552.56"/><qTerm idx="-1" idxOne="36" idxTwo="39" coef="552.56"/><qTerm idx="-1" idxOne="36" idxTwo="40" coef="552.56"/><qTerm idx="-1" idxOne="36" idxTwo="41" coef="552.56"/><qTerm idx="-1" idxOne="37" idxTwo="37" coef="276.28"/><qTerm idx="-1" idxOne="37" idxTwo="38" coef="552.56"/><qTerm idx="-1" idxOne="37" idxTwo="39" coef="552.56"/><qTerm idx="-1" idxOne="37" idxTwo="40" coef="552.56"/><qTerm idx="-1" idxOne="37" idxTwo="41" coef="552.56"/><qTerm idx="-1" idxOne="38" idxTwo="38" coef="276.28"/><qTerm idx="-1" idxOne="38" idxTwo="39" coef="552.56"/><qTerm idx="-1" idxOne="38" idxTwo="40" coef="552.56"/><qTerm idx="-1" idxOne="38" idxTwo="41" coef="552.56"/><qTerm idx="-1" idxOne="39" idxTwo="39" coef="276.28"/><qTerm idx="-1" idxOne="39" idxTwo="40" coef="552.56"/><qTerm idx="-1" idxOne="39" idxTwo="41" coef="552.56"/><qTerm idx="-1" idxOne="40" idxTwo="40" coef="276.28"/><qTerm idx="-1" idxOne="40" idxTwo="41" coef="552.56"/><qTerm idx="-1" idxOne="41" idxTwo="41" coef="276.28"/><qTerm idx="-1" idxOne="42" idxTwo="42" coef="792.912"/><qTerm idx="-1" idxOne="42" idxTwo="43" coef="1585.824"/><qTerm idx="-1" idxOne="42" idxTwo="44" coef="1585.824"/><qTerm idx="-1" idxOne="42" idxTwo="45" coef="1585.824"/><qTerm idx="-1" idxOne="42" idxTwo="46" coef="1585.824"/><qTerm idx="-1" idxOne="42" idxTwo="47" coef="1585.824"/><qTerm idx="-1" idxOne="43" idxTwo="43" coef="792.912"/><qTerm idx="-1" idxOne="43" idxTwo="44" coef="1585.824"/><qTerm idx="-1" idxOne="43" idxTwo="45" coef="1585.824"/><qTerm idx="-1" idxOne="43" idxTwo="46" coef="1585.824"/><qTerm idx="-1" idxOne="43" idxTwo="47" coef="1585.824"/><qTerm idx="-1" idxOne="44" idxTwo="44" coef="792.912"/><qTerm idx="-1" idxOne="44" idxTwo="45" coef="1585.824"/><qTerm idx="-1" idxOne="44" idxTwo="46" coef="1585.824"/><qTerm idx="-1" idxOne="44" idxTwo="47" coef="1585.824"/><qTerm idx="-1" idxOne="45" idxTwo="45" coef="792.912"/><qTerm idx="-1" idxOne="45" idxTwo="46" coef="1585.824"/><qTerm idx="-1" idxOne="45" idxTwo="47" coef="1585.824"/><qTerm idx="-1" idxOne="46" idxTwo="46" coef="792.912"/><qTerm idx="-1" idxOne="46" idxTwo="47" coef="1585.824"/><qTerm idx="-1" idxOne="47" idxTwo="47" coef="792.912"/><qTerm idx="-1" idxOne="48" idxTwo="48" coef="991.679"/><qTerm idx="-1" idxOne="48" idxTwo="49" coef="1983.358"/><qTerm idx="-1" idxOne="48" idxTwo="50" coef="1983.358"/><qTerm idx="-1" idxOne="48" idxTwo="51" coef="1983.358"/><qTerm idx="-1" idxOne="48" idxTwo="52" coef="1983.358"/><qTerm idx="-1" idxOne="48" idxTwo="53" coef="1983.358"/><qTerm idx="-1" idxOne="49" idxTwo="49" coef="991.679"/><qTerm idx="-1" idxOne="49" idxTwo="50" coef="1983.358"/><qTerm idx="-1" idxOne="49" idxTwo="51" coef="1983.358"/><qTerm idx="-1" idxOne="49" idxTwo="52" coef="1983.358"/><qTerm idx="-1" idxOne="49" idxTwo="53" coef="1983.358"/><qTerm idx="-1" idxOne="50" idxTwo="50" coef="991.679"/><qTerm idx="-1" idxOne="50" idxTwo="51" coef="1983.358"/><qTerm idx="-1" idxOne="50" idxTwo="52" coef="1983.358"/><qTerm idx="-1" idxOne="50" idxTwo="53" coef="1983.358"/><qTerm idx="-1" idxOne="51" idxTwo="51" coef="991.679"/><qTerm idx="-1" idxOne="51" idxTwo="52" coef="1983.358"/><qTerm idx="-1" idxOne="51" idxTwo="53" coef="1983.358"/><qTerm idx="-1" idxOne="52" idxTwo="52" coef="991.679"/><qTerm idx="-1" idxOne="52" idxTwo="53" coef="1983.358"/><qTerm idx="-1" idxOne="53" idxTwo="53" coef="991.679"/></quadraticCoefficients></instanceData></osil>